(set-logic QF_FPABV)
(declare-fun b41 () (_ FP 8 24))
(declare-fun b23 () (_ FP 8 24))
(declare-fun b26 () (_ FP 8 24))
(declare-fun b72 () (_ FP 8 24))
(declare-fun b32 () (_ FP 8 24))
(declare-fun b14 () (_ FP 8 24))
(declare-fun b35 () (_ FP 8 24))
(declare-fun b29 () (_ FP 8 24))
(declare-fun b69 () (_ FP 8 24))
(declare-fun b11 () (_ FP 8 24))
(declare-fun b38 () (_ FP 8 24))
(declare-fun b10 () (_ FP 8 24))
(declare-fun b20 () (_ FP 8 24))
(declare-fun b17 () (_ FP 8 24))
(define-fun .3 () RoundingMode roundNearestTiesToEven)
(define-fun .9 () (_ FP 8 24) b69)
(define-fun .10 () (_ FP 8 24) b11)
(define-fun .11 () Bool (< .9 .10))
(define-fun .12 () (_ FP 8 24) b10)
(define-fun .13 () (_ FP 8 24) (* .3 .10 .12))
(define-fun .14 () (_ FP 8 24) b14)
(define-fun .15 () (_ FP 8 24) (* .3 .13 .14))
(define-fun .16 () (_ FP 8 24) b17)
(define-fun .17 () (_ FP 8 24) (* .3 .15 .16))
(define-fun .18 () (_ FP 8 24) b20)
(define-fun .19 () (_ FP 8 24) (* .3 .17 .18))
(define-fun .20 () (_ FP 8 24) b23)
(define-fun .21 () (_ FP 8 24) (* .3 .19 .20))
(define-fun .22 () (_ FP 8 24) b26)
(define-fun .23 () (_ FP 8 24) (* .3 .21 .22))
(define-fun .24 () (_ FP 8 24) b29)
(define-fun .25 () (_ FP 8 24) (* .3 .23 .24))
(define-fun .26 () (_ FP 8 24) b32)
(define-fun .27 () (_ FP 8 24) (* .3 .25 .26))
(define-fun .28 () (_ FP 8 24) b35)
(define-fun .29 () (_ FP 8 24) (* .3 .27 .28))
(define-fun .30 () (_ FP 8 24) b38)
(define-fun .31 () (_ FP 8 24) (* .3 .29 .30))
(define-fun .32 () (_ FP 8 24) b41)
(define-fun .33 () Bool (< .31 .32))
(define-fun .34 () Bool (and .11 .33))
(define-fun .35 () (_ FP 8 24) b72)
(define-fun .36 () Bool (< .10 .35))
(define-fun .37 () Bool (and .34 .36))
(define-fun .38 () Bool (< .9 .14))
(define-fun .39 () Bool (and .37 .38))
(define-fun .40 () Bool (< .14 .35))
(define-fun .41 () Bool (and .39 .40))
(define-fun .42 () Bool (< .9 .16))
(define-fun .43 () Bool (and .41 .42))
(define-fun .44 () Bool (< .16 .35))
(define-fun .45 () Bool (and .43 .44))
(define-fun .46 () Bool (< .9 .18))
(define-fun .47 () Bool (and .45 .46))
(define-fun .48 () Bool (< .18 .35))
(define-fun .49 () Bool (and .47 .48))
(define-fun .50 () Bool (< .9 .20))
(define-fun .51 () Bool (and .49 .50))
(define-fun .52 () Bool (< .20 .35))
(define-fun .53 () Bool (and .51 .52))
(define-fun .54 () Bool (< .9 .22))
(define-fun .55 () Bool (and .53 .54))
(define-fun .56 () Bool (< .22 .35))
(define-fun .57 () Bool (and .55 .56))
(define-fun .58 () Bool (< .9 .24))
(define-fun .59 () Bool (and .57 .58))
(define-fun .60 () Bool (< .24 .35))
(define-fun .61 () Bool (and .59 .60))
(define-fun .62 () Bool (< .9 .26))
(define-fun .63 () Bool (and .61 .62))
(define-fun .64 () Bool (< .26 .35))
(define-fun .65 () Bool (and .63 .64))
(define-fun .66 () Bool (< .9 .28))
(define-fun .67 () Bool (and .65 .66))
(define-fun .68 () Bool (< .28 .35))
(define-fun .69 () Bool (and .67 .68))
(define-fun .70 () Bool (< .9 .30))
(define-fun .71 () Bool (and .69 .70))
(define-fun .72 () Bool (< .30 .35))
(define-fun .73 () Bool (and .71 .72))
(assert .73)
(check-sat)
